unsat
(forall ((A (_ BitVec 1))
         (B (_ BitVec 1))
         (C (_ BitVec 1))
         (D (_ BitVec 32))
         (E (_ BitVec 32))
         (F (_ BitVec 22))
         (G (_ BitVec 2))
         (H (_ BitVec 32))
         (I (_ BitVec 1))
         (J (_ BitVec 1))
         (K (_ BitVec 1))
         (L (_ BitVec 1))
         (M (_ BitVec 2))
         (N (_ BitVec 1))
         (O (_ BitVec 1))
         (P (_ BitVec 6))
         (Q (_ BitVec 6))
         (R (_ BitVec 1))
         (S (_ BitVec 1))
         (T (_ BitVec 1))
         (U (_ BitVec 1))
         (V (_ BitVec 1))
         (W (_ BitVec 1))
         (X (_ BitVec 1))
         (Y (_ BitVec 34))
         (Z (_ BitVec 1))
         (A1 (_ BitVec 1))
         (B1 (_ BitVec 1))
         (C1 (_ BitVec 2))
         (D1 (_ BitVec 6))
         (E1 (_ BitVec 2))
         (F1 (_ BitVec 10))
         (G1 (_ BitVec 1))
         (H1 (_ BitVec 1))
         (I1 (_ BitVec 1))
         (J1 (_ BitVec 1))
         (K1 (_ BitVec 1))
         (L1 (_ BitVec 1))
         (M1 (_ BitVec 22))
         (N1 (_ BitVec 1))
         (O1 (_ BitVec 1))
         (P1 (_ BitVec 1))
         (Q1 (_ BitVec 1))
         (R1 (_ BitVec 1))
         (S1 (_ BitVec 1))
         (T1 (_ BitVec 1))
         (U1 (_ BitVec 1))
         (V1 (_ BitVec 1))
         (W1 (_ BitVec 1))
         (X1 (_ BitVec 1))
         (Y1 (_ BitVec 32))
         (Z1 (_ BitVec 1))
         (A2 (_ BitVec 2))
         (B2 (_ BitVec 1))
         (C2 (_ BitVec 22))
         (D2 (_ BitVec 1)))
  (! (let ((a!1 (or ((_ bit2bool 0) U1)
                    (ite (= N #b1)
                         (= ((_ extract 1 1) F1) #b0)
                         (= ((_ extract 2 2) F1) #b0))))
           (a!2 (or (not (= N #b1)) (not (= ((_ extract 0 0) G) #b1))))
           (a!3 (or ((_ bit2bool 0) Z)
                    (not (= K #b0))
                    (not (= R #b1))
                    (not (= ((_ extract 0 0) D1) #b1))))
           (a!4 (ite (= N #b1)
                     (= ((_ extract 2 2) F1) #b0)
                     (= ((_ extract 3 3) F1) #b0)))
           (a!5 (or (not (= I #b0))
                    (not (= R #b1))
                    (not (= ((_ extract 0 0) D1) #b1))))
           (a!6 (not (or (= O1 #b0) (= P1 #b0) (not (= D1 #b000010)))))
           (a!7 (not (or (= O1 #b0) (= P1 #b0) (not (= D1 #b000001)))))
           (a!9 (or (not (= N #b1)) (not (= ((_ extract 1 1) G) #b1))))
           (a!10 (and (= ((_ extract 8 8) F1) #b0)
                      (= ((_ extract 7 7) F1) #b0)
                      (= ((_ extract 6 6) F1) #b0)
                      (= ((_ extract 5 5) F1) #b0)
                      (= ((_ extract 4 4) F1) #b0)
                      (= ((_ extract 3 3) F1) #b0)
                      (= ((_ extract 2 2) F1) #b0)
                      (= ((_ extract 1 1) F1) #b0)
                      (= ((_ extract 0 0) F1) #b0)
                      (= ((_ extract 9 9) F1) #b0)))
           (a!11 (ite (= N #b1)
                      (= ((_ extract 3 3) F1) #b0)
                      (= ((_ extract 4 4) F1) #b0)))
           (a!12 (not (= E
                         (concat ((_ extract 31 17) E)
                                 ((_ extract 15 7) E)
                                 ((_ extract 7 0) E)))))
           (a!13 (or (= C1 #b00)
                     (not (= Q1 #b1))
                     (not (= T #b0))
                     (not (= ((_ extract 12 12) H) #b0))))
           (a!14 (ite (= N #b1)
                      (= ((_ extract 4 4) F1) #b0)
                      (= ((_ extract 5 5) F1) #b0)))
           (a!15 (not (or (= W1 #b0)
                          (= ((_ extract 10 10) Y1) #b1)
                          (= ((_ extract 12 12) Y1) #b0)
                          (= ((_ extract 8 8) Y1) #b1))))
           (a!16 (or (= N #b0)
                     (not (= S #b0))
                     (not (= ((_ extract 5 5) D1) #b0))
                     (not (bvule ((_ extract 4 0) D1) #b10001))))
           (a!21 (or (not (= ((_ extract 0 0) G) #b1)) (= W #b0)))
           (a!22 (not (= (concat ((_ extract 30 16) E)
                                 #b0000101
                                 ((_ extract 9 9) H)
                                 #b0
                                 ((_ extract 5 0) E)
                                 #b00)
                         E)))
           (a!24 (or (not (= I #b0))
                     ((_ bit2bool 0) U1)
                     (not (= ((_ extract 0 0) D1) #b1))))
           (a!25 (or (not (= Z #b0))
                     ((_ bit2bool 0) U1)
                     (not (= ((_ extract 0 0) D1) #b1))))
           (a!26 (or (not (= ((_ extract 5 5) D1) #b0))
                     (not (= ((_ extract 1 1) D1) #b0))
                     (not (= ((_ extract 0 0) D1) #b0))
                     (not (= ((_ extract 4 4) D1) #b0))
                     (not (= ((_ extract 2 2) D1) #b0))
                     (not (= ((_ extract 3 3) D1) #b0))))
           (a!44 (or (not (= N #b1))
                     (not (= Q1 #b1))
                     ((_ bit2bool 0) R1)
                     (not (= ((_ extract 0 0) D1) #b1))))
           (a!45 (ite (or (not (= S #b0)) (not (= G #b01)))
                      (ite (= T #b1) (ite (= S #b0) #b11 C1) #b00)
                      #b11))
           (a!47 (or (not ((_ bit2bool 8) F1))
                     (not (= ((_ extract 5 1) D1) #b00000))
                     (not (= C1 #b01))))
           (a!48 (not (= E
                         (concat ((_ extract 31 17) E)
                                 #b0000100
                                 S
                                 V1
                                 ((_ extract 7 0) E)))))
           (a!50 (or (= ((_ extract 8 8) F1) #b0)
                     (not (= C1 #b10))
                     (not (= ((_ extract 5 1) D1) #b00000))))
           (a!51 (or (not (= N #b1))
                     (not (= R #b1))
                     (not (= ((_ extract 0 0) D1) #b1))))
           (a!52 (not (= (concat ((_ extract 29 15) E)
                                 #b000010
                                 ((_ extract 10 9) H)
                                 #b0
                                 ((_ extract 7 0) E))
                         E)))
           (a!53 (not (= (concat ((_ extract 31 17) E)
                                 #b000010
                                 ((_ extract 10 9) H)
                                 #b0
                                 ((_ extract 7 0) E))
                         E))))
     (let ((a!8 (ite (or (= N #b1) (= D1 #b000000))
                     (or a!6 (= ((_ extract 5 1) D1) #b00000))
                     a!7))
           (a!17 (ite (or (not (= T #b1)) a!15) #b00 (ite a!16 #b10 #b11)))
           (a!23 (or (ite (= N #b1)
                          (= ((_ extract 5 5) F1) #b0)
                          (= ((_ extract 6 6) F1) #b0))
                     a!22))
           (a!27 (ite (or (= N #b0) (not a!26))
                      (= ((_ extract 5 5) D1) #b0)
                      (= ((_ extract 5 5) (bvadd #b111111 D1)) #b0)))
           (a!28 (ite (or (= N #b0) (not a!26))
                      (= ((_ extract 4 4) D1) #b0)
                      (= ((_ extract 4 4) (bvadd #b111111 D1)) #b0)))
           (a!29 (ite (or (= N #b0) (not a!26))
                      (= ((_ extract 3 3) D1) #b0)
                      (= ((_ extract 3 3) (bvadd #b111111 D1)) #b0)))
           (a!30 (ite (or (= N #b0) (not a!26))
                      (= ((_ extract 2 2) D1) #b0)
                      (= ((_ extract 2 2) (bvadd #b111111 D1)) #b0)))
           (a!31 (ite (or (= N #b0) (not a!26))
                      (= ((_ extract 1 1) D1) #b0)
                      (= ((_ extract 1 1) (bvadd #b111111 D1)) #b0)))
           (a!32 (ite (or (= N #b0) (not a!26))
                      (= ((_ extract 0 0) D1) #b0)
                      (= ((_ extract 0 0) D1) #b1)))
           (a!34 (ite (or (= N #b0) (not a!26)) D1 (bvadd #b111111 D1)))
           (a!46 (or (= C1 #b00)
                     (not ((_ bit2bool 7) F1))
                     (= (ite (= T #b1) a!45 #b00) #b11)))
           (a!49 (or (= ((_ extract 8 8) F1) #b0)
                     (= C1 #b00)
                     (not (= ((_ extract 8 8) H) #b1))
                     a!48)))
     (let ((a!18 (ite (or (= W1 #b0)
                          (= ((_ extract 10 10) Y1) #b0)
                          (= ((_ extract 12 12) Y1) #b0)
                          (= ((_ extract 8 8) Y1) #b1)
                          (= ((_ extract 9 9) Y1) #b0))
                      a!17
                      #b10))
           (a!33 (or (not a!27)
                     (not a!28)
                     (not a!29)
                     (not a!30)
                     (not a!31)
                     (not a!32))))
     (let ((a!19 (ite (or (= W1 #b0)
                          (= ((_ extract 10 10) Y1) #b0)
                          (= ((_ extract 12 12) Y1) #b0)
                          (= ((_ extract 8 8) Y1) #b1)
                          (= ((_ extract 9 9) Y1) #b1))
                      a!18
                      #b11))
           (a!35 (ite a!33 (= ((_ extract 5 5) (bvadd #b111111 a!34)) #b0) a!27))
           (a!36 (ite a!33
                      (ite (or (= N #b0) (not a!26))
                           (= ((_ extract 0 0) D1) #b1)
                           (= ((_ extract 0 0) D1) #b0))
                      a!32))
           (a!37 (ite a!33 (= ((_ extract 3 3) (bvadd #b111111 a!34)) #b0) a!29))
           (a!38 (ite a!33 (= ((_ extract 4 4) (bvadd #b111111 a!34)) #b0) a!28))
           (a!39 (ite a!33 (= ((_ extract 2 2) (bvadd #b111111 a!34)) #b0) a!30))
           (a!40 (ite a!33 (= ((_ extract 1 1) (bvadd #b111111 a!34)) #b0) a!31))
           (a!42 (not (= (ite a!33 (bvadd #b111111 a!34) a!34) #b000010)))
           (a!43 (or (not (= G #b01))
                     a!11
                     ((_ bit2bool 0) (ite a!33 (bvadd #b111111 a!34) a!34))
                     ((_ bit2bool 5) (ite a!33 (bvadd #b111111 a!34) a!34))
                     ((_ bit2bool 4) (ite a!33 (bvadd #b111111 a!34) a!34))
                     ((_ bit2bool 3) (ite a!33 (bvadd #b111111 a!34) a!34))
                     ((_ bit2bool 2) (ite a!33 (bvadd #b111111 a!34) a!34)))))
     (let ((a!20 (or (not (= ((_ extract 5 1) D1) #b00000))
                     (not (= ((_ extract 1 1) C1) #b1))
                     a!14
                     (not (= a!19 #b10))
                     (not (= a!17 a!18))))
           (a!41 (ite (or (not a!35)
                          (not a!36)
                          (not a!37)
                          (not a!38)
                          (not a!39)
                          (not a!40))
                      (bvadd #b111111 (ite a!33 (bvadd #b111111 a!34) a!34))
                      (ite a!33 (bvadd #b111111 a!34) a!34))))
     (let ((a!54 (and (or (not ((_ bit2bool 8) F1)) (not (= R #b1)))
                      (not ((_ bit2bool 0) U))
                      (or ((_ bit2bool 0) R1) (not ((_ bit2bool 0) F1)))
                      (or (not ((_ bit2bool 0) F1)) (not (= U1 #b0)))
                      (or (not ((_ bit2bool 0) F1)) (not ((_ bit2bool 32) Y)))
                      (or (not ((_ bit2bool 0) F1)) (not (= Q1 #b0)))
                      (or (not ((_ bit2bool 1) F1)) (not (= J #b0)))
                      (or (= C1 #b00)
                          (not (= K #b0))
                          (not (= Q1 #b1))
                          (not (= T #b0)))
                      (or (not (= T #b1)) (not ((_ bit2bool 0) F1)))
                      (or (not ((_ bit2bool 1) F1)) (= C1 #b00))
                      (or (not ((_ bit2bool 1) F1)) (not (= Q1 #b0)))
                      (or (not ((_ bit2bool 0) F1)) (not (= V1 #b0)))
                      (or (not ((_ bit2bool 0) F1))
                          (not (= R #b1))
                          (not ((_ bit2bool 8) H)))
                      (or (not ((_ bit2bool 0) F1)) (= C1 #b00))
                      (or (not ((_ bit2bool 0) F1)) (not ((_ bit2bool 5) D1)))
                      (or (not ((_ bit2bool 1) F1)) (not ((_ bit2bool 11) E)))
                      (or (not ((_ bit2bool 1) F1)) (not (= V1 #b0)))
                      (or (not ((_ bit2bool 0) F1))
                          (= ((_ extract 0 0) D1) #b1))
                      (or (= D1 #b000000)
                          (not ((_ bit2bool 1) F1))
                          (not (= R #b1)))
                      (or (not ((_ bit2bool 0) F1))
                          (= ((_ extract 3 3) D1) #b1))
                      (or ((_ bit2bool 12) E) (not ((_ bit2bool 2) F1)))
                      (or (= I1 #b1)
                          (= C1 #b00)
                          (not (= Q1 #b1))
                          (not (= T #b0)))
                      (or (not (= K1 #b1)) (= ((_ extract 1 1) G) #b1))
                      (or (not (= T #b1)) (not ((_ bit2bool 1) F1)))
                      (or (not ((_ bit2bool 1) F1))
                          (= ((_ extract 3 3) D1) #b1))
                      (or (= ((_ extract 2 2) F1) #b0) (not (= V1 #b0)))
                      (or (= ((_ extract 2 2) F1) #b0) (not (= Q1 #b0)))
                      a!1
                      (or (not ((_ bit2bool 3) F1)) (not (= J #b0)))
                      (or (not (= R #b1))
                          (= D1 #b000000)
                          (= ((_ extract 3 3) F1) #b0))
                      a!2
                      (or (= D1 #b000000)
                          (not (= Z #b0))
                          ((_ bit2bool 0) U1)
                          (not ((_ bit2bool 32) Y)))
                      (or (not ((_ bit2bool 32) Y)) (not (= J #b0)))
                      (or (not ((_ bit2bool 2) F1)) (= C1 #b00))
                      (or ((_ bit2bool 0) R1)
                          (not (= U1 #b0))
                          (not ((_ bit2bool 0) B1)))
                      (or (not (= G #b01)) (not (= P1 #b0)))
                      (or (not ((_ bit2bool 2) F1))
                          ((_ bit2bool 0) D1)
                          ((_ bit2bool 3) D1))
                      a!3
                      (or (not (= R #b1)) (= ((_ extract 2 2) F1) #b0))
                      (or (not (= P1 #b1)) (= G #b01))
                      (or ((_ bit2bool 0) J) (not ((_ bit2bool 2) F1)))
                      (or ((_ bit2bool 0) U1) a!4)
                      (or (not ((_ bit2bool 3) F1)) (not (= V1 #b0)))
                      (or (not ((_ bit2bool 0) G1)) (not (= N #b0)))
                      (or (not ((_ bit2bool 4) F1)) (not (= V1 #b0)))
                      a!5
                      (or (not a!8) a!4)
                      (or (not ((_ bit2bool 3) F1)) (not (= Q1 #b0)))
                      a!9
                      (or (not ((_ bit2bool 4) F1)) (not (= Q1 #b0)))
                      (or (not ((_ bit2bool 4) F1)) (not (= R #b1)))
                      (or ((_ bit2bool 4) D1)
                          ((_ bit2bool 1) D1)
                          ((_ bit2bool 5) D1)
                          ((_ bit2bool 0) R1)
                          ((_ bit2bool 2) D1)
                          ((_ bit2bool 0) D1)
                          ((_ bit2bool 3) D1)
                          (not ((_ bit2bool 0) B1)))
                      (or a!10 (= C1 #b00) (not (= J #b0)))
                      (or ((_ bit2bool 0) J) (not ((_ bit2bool 4) F1)))
                      (or ((_ bit2bool 0) U1) a!11)
                      (or (not ((_ bit2bool 5) F1)) a!12)
                      (or (not (= Q1 #b1)) (not (= K1 #b1)))
                      (or (not (= N #b1)) (not (= J1 #b0)))
                      (or (not ((_ bit2bool 5) F1)) (not (= Q1 #b0)))
                      (or (not ((_ bit2bool 5) F1)) ((_ bit2bool 8) E))
                      (or (= ((_ extract 5 5) F1) #b0) (not (= V1 #b0)))
                      (or ((_ bit2bool 0) U1)
                          (not ((_ bit2bool 5) F1))
                          (= D1 #b000000))
                      (or ((_ bit2bool 12) E) (not ((_ bit2bool 6) F1)))
                      (or (not (= O1 #b1)) (= Q1 #b0))
                      (or (not (= G #b10)) (not (= W #b0)))
                      (or (not (= G #b01)) ((_ bit2bool 0) R1) (not (= I1 #b1)))
                      (or (not ((_ bit2bool 5) F1))
                          (not (= I #b0))
                          (not (= I1 #b1))
                          (not (= R #b1)))
                      a!13
                      (or (= U1 #b1) (not (= J1 #b0)))
                      (or (= C1 #b00) (not (= J1 #b0)))
                      a!20
                      (or (not (= G #b01)) (not (= Q1 #b1)) ((_ bit2bool 0) R1))
                      (or ((_ bit2bool 0) R1)
                          (not (= N #b1))
                          (= ((_ extract 3 3) F1) #b0))
                      (or ((_ bit2bool 0) G1)
                          (not (= N #b1))
                          (= ((_ extract 3 3) F1) #b0))
                      (or ((_ bit2bool 0) U1) a!14)
                      (or (not (= C1 #b10)) a!4)
                      (or (not (= T #b1)) (not ((_ bit2bool 2) F1)))
                      (or (= ((_ extract 3 3) F1) #b0) (= C1 #b00))
                      a!21
                      (or (= ((_ extract 3 3) F1) #b0) (not (= T #b1)))
                      (or (not (= G #b10))
                          (not (= Q1 #b1))
                          ((_ bit2bool 0) R1)
                          (not ((_ bit2bool 0) B1)))
                      (or ((_ bit2bool 0) R1)
                          (not (= N #b1))
                          (= ((_ extract 2 2) F1) #b0))
                      (or (= ((_ extract 5 5) F1) #b0) (not (= J #b0)))
                      (or ((_ bit2bool 0) G1)
                          (not (= N #b1))
                          (= ((_ extract 4 4) F1) #b0))
                      (or (= ((_ extract 2 2) F1) #b0)
                          ((_ bit2bool 2) D1)
                          ((_ bit2bool 3) D1))
                      (or (not (= D1 #b000001)) (not ((_ bit2bool 4) F1)))
                      (or (not ((_ bit2bool 5) F1)) (not (= D1 #b000000)))
                      (or (not ((_ bit2bool 6) F1)) (not (= Q1 #b0)))
                      (or ((_ bit2bool 0) G1)
                          (not ((_ bit2bool 5) F1))
                          (not (= N #b1)))
                      a!23
                      (or (= ((_ extract 6 6) F1) #b0) (not (= J #b0)))
                      (or ((_ bit2bool 0) U1) (not (= N #b0)) (= D1 #b000000))
                      (or (= ((_ extract 3 3) F1) #b0)
                          ((_ bit2bool 2) D1)
                          ((_ bit2bool 3) D1))
                      (or (not (= D1 #b000010)) (not ((_ bit2bool 4) F1)))
                      (or (not (= D1 #b000001)) (not ((_ bit2bool 5) F1)))
                      (or (not (= R #b1)) (= ((_ extract 6 6) F1) #b0))
                      (or (= ((_ extract 6 6) F1) #b0) (not (= D1 #b000000)))
                      (or ((_ bit2bool 0) U1) (not ((_ bit2bool 6) F1)))
                      (or (not ((_ bit2bool 6) F1)) (not (= V1 #b0)))
                      (or (not ((_ bit2bool 7) F1)) (not (= Q1 #b0)))
                      a!24
                      a!25
                      (or (not (= D1 #b000001))
                          ((_ bit2bool 0) J)
                          (not (= N #b1)))
                      (or ((_ bit2bool 0) G1)
                          (not ((_ bit2bool 6) F1))
                          (not (= N #b1)))
                      (or ((_ bit2bool 0) R1)
                          (not (= K #b0))
                          (not (= N #b1))
                          (not (= Q1 #b1)))
                      (or (not ((_ bit2bool 7) F1)) (not (= V1 #b0)))
                      (or (not ((_ bit2bool 4) F1)) (= C1 #b00))
                      (or (= ((_ extract 4 4) F1) #b0) (not (= T #b1)))
                      (or (= ((_ extract 5 5) F1) #b0) (= C1 #b00))
                      (or (not (= T #b1)) (not ((_ bit2bool 5) F1)))
                      (or (= ((_ extract 6 6) F1) #b0) (= C1 #b00))
                      (or (= C1 #b00) (not ((_ bit2bool 7) F1)) (not (= R #b1)))
                      (or (not ((_ bit2bool 7) F1)) (not (= J #b0)))
                      (or (not ((_ bit2bool 2) F1))
                          ((_ bit2bool 1) D1)
                          ((_ bit2bool 3) D1))
                      (or (not (= a!41 #b000010)) a!4)
                      (or a!42 a!11)
                      a!43
                      (or a!14
                          ((_ bit2bool 0) a!34)
                          ((_ bit2bool 2) a!34)
                          ((_ bit2bool 3) a!34)
                          ((_ bit2bool 4) a!34)
                          ((_ bit2bool 5) a!34))
                      (or (not (= D1 #b000010))
                          (= ((_ extract 5 5) F1) #b0)
                          (not (= N #b1)))
                      (or (not (= D1 #b000001)) (= ((_ extract 6 6) F1) #b0))
                      (or (not ((_ bit2bool 7) F1)) (not (= D1 #b000000)))
                      (or (= C1 #b00)
                          (not (= I #b0))
                          (not (= Q1 #b1))
                          (not (= T #b0)))
                      (or a!10 (not (= A1 #b1)) ((_ bit2bool 0) U1))
                      (or ((_ bit2bool 0) G1)
                          (not (= N #b1))
                          (= ((_ extract 7 7) F1) #b0))
                      (or ((_ bit2bool 0) U1) (not ((_ bit2bool 7) F1)))
                      a!44
                      (or (= C1 #b00)
                          (not ((_ bit2bool 7) F1))
                          ((_ bit2bool 1) C1))
                      a!46
                      a!47
                      a!49
                      (or a!10 (not (= U1 #b1)) (not ((_ bit2bool 0) A1)))
                      a!50
                      a!51
                      (or a!52 (= ((_ extract 8 8) F1) #b0))
                      (or (not ((_ bit2bool 8) F1)) (not (= V1 #b0)))
                      (or (not ((_ bit2bool 8) F1)) (not (= J #b0)))
                      (or (= T #b1) (= C1 #b00) (= ((_ extract 8 8) F1) #b0))
                      (or (= ((_ extract 3 3) F1) #b0)
                          ((_ bit2bool 1) D1)
                          ((_ bit2bool 3) D1))
                      (or (not ((_ bit2bool 5) F1)) (not (= D1 #b000011)))
                      (or (not (= D1 #b000001)) (not ((_ bit2bool 7) F1)))
                      (or (not ((_ bit2bool 8) F1)) (not (= D1 #b000000)))
                      (or (not (= N #b1))
                          (not (= K #b0))
                          (not (= Q1 #b1))
                          (not (= U1 #b1))
                          ((_ bit2bool 0) G1))
                      (or (not ((_ bit2bool 0) A1))
                          (not (= R #b0))
                          (not (= U1 #b1))
                          (not (= J #b0))
                          (= Q1 #b0))
                      (or (= Q1 #b0)
                          (not (= N #b1))
                          (not (= U1 #b1))
                          ((_ bit2bool 0) G1)
                          (not ((_ bit2bool 0) A1)))
                      (or (not ((_ bit2bool 8) F1)) a!53)
                      (or (not ((_ bit2bool 9) F1)) (not (= K1 #b1)))
                      (or (not ((_ bit2bool 8) F1)) (not (= Q1 #b0)))
                      (or (= ((_ extract 8 8) F1) #b0)
                          ((_ bit2bool 0) U1)
                          (= ((_ extract 1 1) G) #b1))
                      (or (not ((_ bit2bool 9) F1)) a!12)
                      (or (= ((_ extract 4 4) F1) #b0)
                          ((_ bit2bool 1) D1)
                          ((_ bit2bool 0) D1)
                          ((_ bit2bool 3) D1))
                      (or (not (= D1 #b000010)) (= ((_ extract 6 6) F1) #b0)))))
       (= (INV!slice!1 A
                       B
                       C
                       D
                       E
                       F
                       G
                       H
                       I
                       J
                       K
                       L
                       M
                       N
                       O
                       P
                       Q
                       R
                       S
                       T
                       U
                       V
                       W
                       X
                       Y
                       Z
                       A1
                       B1
                       C1
                       D1
                       E1
                       F1
                       G1
                       H1
                       I1
                       J1
                       K1
                       L1
                       M1
                       N1
                       O1
                       P1
                       Q1
                       R1
                       S1
                       T1
                       U1
                       V1
                       W1
                       X1
                       Y1
                       Z1
                       A2
                       B2
                       C2
                       D2)
          a!54)))))))
     :weight 0))
